c FILE /home/rafael/Documents/HappySet/MIHS/inputs/happygen/output/graph_scale_free_k5_p0.3_v50_20241127_082444.txt
c SOURCE This is a scale-free graph formed for the happy graph colouring problem.
c DESCRIPTION It was generated using the problem generator of Rhyd Lewis
c
c GRAPH STATS
c Seed                             = -2046669956
c Number of Nodes                  = 50
c Number of colours k              = 5
c Number of pre-assignments        = 15
c Number of links per new node     = 5
c Density                          = 0.191837
c 
c The degrees of nodes 1 to 50, respectively, are as follows 
c [26, 22, 22, 21, 20, 17, 17, 16, 16, 14, 13, 12, 11, 11, 10, 10, 9, 9, 9, 9, 9, 8, 8, 7, 7, 7, 
c  7, 6, 6, 6, 6, 6, 6, 6, 6, 5, 5, 5, 5, 5, 5, 5, 5, 5, 5, 5, 5, 5, 5, 5] 
c  
p edge 50 235 5
e 1 2
e 1 3
e 1 4
e 1 6
e 1 8
e 1 9
e 1 10
e 1 11
e 1 12
e 1 13
e 1 14
e 1 16
e 1 19
e 1 23
e 1 24
e 1 25
e 1 28
e 1 29
e 1 30
e 1 33
e 1 34
e 1 35
e 1 39
e 1 40
e 1 45
e 1 47
e 2 3
e 2 4
e 2 5
e 2 6
e 2 7
e 2 8
e 2 9
e 2 11
e 2 12
e 2 16
e 2 19
e 2 22
e 2 23
e 2 25
e 2 34
e 2 35
e 2 36
e 2 37
e 2 43
e 2 49
e 2 50
e 3 4
e 3 5
e 3 6
e 3 7
e 3 8
e 3 11
e 3 15
e 3 18
e 3 20
e 3 21
e 3 22
e 3 24
e 3 25
e 3 26
e 3 29
e 3 32
e 3 35
e 3 47
e 3 49
e 3 50
e 4 5
e 4 6
e 4 8
e 4 10
e 4 11
e 4 13
e 4 14
e 4 15
e 4 16
e 4 22
e 4 26
e 4 28
e 4 38
e 4 45
e 4 46
e 4 47
e 4 48
e 4 50
e 5 6
e 5 7
e 5 8
e 5 10
e 5 12
e 5 13
e 5 14
e 5 15
e 5 17
e 5 19
e 5 20
e 5 24
e 5 30
e 5 33
e 5 36
e 5 46
e 5 49
e 6 7
e 6 9
e 6 10
e 6 11
e 6 12
e 6 14
e 6 17
e 6 18
e 6 24
e 6 26
e 6 30
e 6 32
e 7 11
e 7 13
e 7 26
e 7 28
e 7 29
e 7 31
e 7 36
e 7 38
e 7 39
e 7 41
e 7 42
e 7 44
e 7 47
e 8 9
e 8 10
e 8 11
e 8 17
e 8 19
e 8 21
e 8 22
e 8 32
e 8 36
e 8 41
e 8 43
e 9 11
e 9 17
e 9 18
e 9 27
e 9 28
e 9 29
e 9 30
e 9 31
e 9 32
e 9 39
e 9 40
e 9 42
e 10 23
e 10 27
e 10 28
e 10 30
e 10 31
e 10 35
e 10 36
e 10 47
e 10 50
e 11 13
e 11 14
e 11 24
e 11 25
e 11 44
e 12 13
e 12 16
e 12 19
e 12 34
e 12 38
e 12 41
e 12 42
e 12 48
e 13 25
e 13 33
e 13 34
e 13 37
e 13 41
e 14 15
e 14 17
e 14 26
e 14 27
e 14 42
e 14 45
e 15 16
e 15 18
e 15 25
e 15 27
e 15 38
e 15 45
e 16 21
e 16 32
e 16 34
e 16 39
e 16 44
e 17 20
e 17 23
e 17 29
e 17 39
e 18 20
e 18 23
e 18 24
e 18 27
e 18 42
e 19 20
e 19 35
e 19 37
e 19 50
e 20 31
e 20 33
e 20 37
e 20 48
e 21 27
e 21 33
e 21 41
e 21 44
e 21 45
e 21 46
e 22 24
e 22 38
e 22 46
e 22 48
e 23 33
e 23 43
e 23 49
e 25 40
e 26 43
e 26 44
e 27 37
e 28 31
e 29 48
e 30 40
e 31 46
e 32 43
e 34 40
e 35 49
n 14 1
n 25 2
n 26 1
n 27 1
n 29 4
n 30 5
n 33 4
n 35 5
n 36 3
n 37 1
n 42 1
n 46 5
n 48 4
n 49 5
n 50 1
